
List of user-set options:

                                    Name   Value                used
                           compl_inf_tol = 1                     yes
                         constr_viol_tol = 1                     yes
                            dual_inf_tol = 1000                  yes
                           linear_solver = ma97                  yes
                              ma86_small = 1e-30                  no
                                  ma86_u = 0.0001                 no
                              ma97_order = best                  yes
                              ma97_small = 1e-30                 yes
                            ma97_switch1 = at_start              yes
                            ma97_switch2 = od_hd_reuse           yes
                                  ma97_u = 1e-06                 yes
                               ma97_umax = 0.5                   yes
                                max_iter = 1000                  yes
                    max_refinement_steps = 20                    yes
                    min_refinement_steps = 5                     yes
                                 mu_init = 1e-06                 yes
           mu_superlinear_decrease_power = 1.25                  yes
                   nlp_scaling_min_value = 1e-08                 yes
                        option_file_name = Preset_Case_712_pf.opt  yes
                             output_file = ./tmp/Preset_Case_712_pf.output  yes
                      print_user_options = yes                   yes
        required_infeasibility_reduction = 1                      no
                                     tol = 1e-08                 yes
                   warm_start_bound_frac = 1e-20                 yes
                   warm_start_bound_push = 1e-20                 yes
                   warm_start_init_point = yes                   yes
              warm_start_mult_bound_push = 1e-20                 yes
                warm_start_mult_init_max = 1e+40                 yes
             warm_start_slack_bound_frac = 1e-20                 yes
             warm_start_slack_bound_push = 1e-20                 yes

******************************************************************************
This program contains Ipopt, a library for large-scale nonlinear optimization.
 Ipopt is released as open source code under the Eclipse Public License (EPL).
         For more information visit http://projects.coin-or.org/Ipopt
******************************************************************************

This is Ipopt version 3.12.10, running with linear solver ma97.

Number of nonzeros in equality constraint Jacobian...:   123442
Number of nonzeros in inequality constraint Jacobian.:      213
Number of nonzeros in Lagrangian Hessian.............:    49069

Total number of variables............................:    31591
                     variables with only lower bounds:    12912
                variables with lower and upper bounds:    15130
                     variables with only upper bounds:        0
Total number of equality constraints.................:    31483
Total number of inequality constraints...............:       25
        inequality constraints with only lower bounds:        4
   inequality constraints with lower and upper bounds:        0
        inequality constraints with only upper bounds:       21

iter    objective    inf_pr   inf_du lg(mu)  ||d||  lg(rg) alpha_du alpha_pr  ls
   0 -4.9898400e+00 4.02e-03 1.02e+00  -6.0 0.00e+00    -  0.00e+00 0.00e+00   0
   1 -5.0007210e+00 8.82e+00 3.56e+01  -6.0 1.10e+06    -  3.04e-05 4.43e-04h  1
   2 -5.0007318e+00 8.82e+00 4.41e+01  -6.0 1.05e+06    -  2.63e-03 2.16e-05h  1
   3 -4.9918230e+00 8.75e+00 4.46e+01  -6.0 4.73e+03    -  4.96e-02 7.54e-03h  1
   4 -4.9917140e+00 8.75e+00 9.72e+01  -6.0 8.63e+04    -  8.71e-03 8.86e-05h  6
   5 -4.9898680e+00 8.74e+00 1.14e+02  -6.0 3.84e+03    -  2.11e-02 1.57e-03h  7
   6 -4.9895656e+00 8.74e+00 1.27e+02  -6.0 3.86e+03    -  1.53e-02 2.59e-04h 10
   7 -4.9894141e+00 8.74e+00 1.50e+02  -6.0 3.88e+03    -  2.75e-02 1.30e-04h 11
   8 -4.9893365e+00 8.74e+00 1.62e+02  -6.0 1.28e+04    -  1.49e-02 6.75e-05h 11
   9 -4.9892669e+00 8.74e+00 1.64e+02  -6.0 4.49e+03    -  2.52e-03 6.00e-05h 12
iter    objective    inf_pr   inf_du lg(mu)  ||d||  lg(rg) alpha_du alpha_pr  ls
  10 -4.9842056e+00 8.70e+00 2.49e+02  -6.0 1.26e+04    -  1.09e-01 4.40e-03h  5
  11 -4.9464218e+00 8.41e+00 2.28e+02  -6.0 4.62e+03    -  1.55e-02 3.31e-02h  3
  12 -4.9439970e+00 8.39e+00 2.83e+02  -6.0 1.52e+04    -  7.19e-02 2.48e-03h  6
  13 -4.9418040e+00 8.37e+00 2.93e+02  -6.0 1.74e+04    -  1.65e-02 2.29e-03h  6
  14 -4.8716477e+00 4.35e+01 2.26e+02  -6.0 1.81e+04    -  1.30e-02 7.40e-02w  1
  15 -4.5795642e+00 2.65e+01 4.34e+03  -6.0 4.56e+03    -  9.19e-01 4.29e-01w  1
  16 -4.5868402e+00 2.59e+01 4.25e+03  -6.0 2.10e+02  -4.0 1.97e-06 2.14e-02w  1
  17 -4.9396116e+00 8.35e+00 3.01e+02  -6.0 6.69e+02  -4.5 1.30e-02 2.31e-03h  5
  18 -4.9373881e+00 8.33e+00 5.32e+02  -6.0 1.85e+04    -  3.13e-01 2.37e-03h  6
  19 -4.9349341e+00 8.31e+00 5.38e+02  -6.0 1.75e+04    -  1.66e-02 2.63e-03h  6
iter    objective    inf_pr   inf_du lg(mu)  ||d||  lg(rg) alpha_du alpha_pr  ls
  20 -4.9324657e+00 8.29e+00 5.71e+02  -6.0 1.80e+04    -  7.04e-02 2.69e-03h  6
  21 -4.9297483e+00 8.26e+00 5.80e+02  -6.0 1.70e+04    -  2.39e-02 2.98e-03h  6
  22 -4.9268887e+00 8.23e+00 6.71e+02  -6.0 1.68e+04    -  2.00e-01 3.18e-03h  6
  23 -4.9232927e+00 8.20e+00 6.79e+02  -6.0 1.39e+04    -  3.21e-02 4.04e-03h  6
  24 -4.9194437e+00 8.17e+00 7.95e+02  -6.0 1.33e+04    -  3.22e-01 4.39e-03h  6
  25 -4.9136901e+00 8.11e+00 7.99e+02  -6.0 9.25e+03    -  4.33e-02 6.65e-03h  6
  26 -4.9075720e+00 8.05e+00 1.00e+03  -6.0 8.85e+03    -  8.23e-01 7.28e-03h  6
  27 -4.6234698e+00 5.17e+01 2.70e+03  -6.0 5.15e+03    -  6.25e-02 3.46e-01w  1
  28 -4.6519709e+00 4.17e+01 2.83e+03  -6.0 7.88e+02  -5.0 5.46e-06 1.93e-01w  1
  29 -4.8559096e+00 1.33e+01 1.08e+04  -6.0 2.21e+02  -5.4 6.96e-02 6.82e-01w  1
iter    objective    inf_pr   inf_du lg(mu)  ||d||  lg(rg) alpha_du alpha_pr  ls
  30 -5.1025213e+00 3.39e+00 1.04e+04  -6.0 2.28e+01  -5.0 4.75e-01 7.45e-01h  1
  31 -5.1697921e+00 8.28e-01 2.62e+03  -6.0 4.26e+01  -5.5 1.34e-01 7.56e-01h  1
  32 -5.1935952e+00 2.52e+00 9.40e+02  -6.0 7.94e+01  -6.0 5.11e-02 6.24e-01h  1
  33 -5.1963457e+00 2.38e+00 9.24e+02  -6.0 3.39e+02  -6.4 5.40e-02 5.12e-02h  1
  34 -5.2189408e+00 2.48e+00 1.52e+03  -6.0 2.12e+02  -6.9 3.98e-01 2.60e-01h  1
  35 -5.2256436e+00 2.36e+00 1.45e+03  -6.0 5.71e+02  -7.4 1.00e+00 6.98e-02h  1
  36 -5.2407120e+00 2.31e+00 1.48e+03  -6.0 2.30e+03  -7.9 5.79e-01 1.36e-01h  1
  37 -5.2416515e+00 2.23e+00 1.51e+03  -6.0 8.63e+02  -4.7 2.55e-05 3.60e-02h  1
  38 -5.2427229e+00 2.09e+00 3.48e+03  -6.0 2.62e+02  -5.2 7.73e-03 7.29e-02h  1
  39 -5.2514255e+00 2.04e+00 3.35e+03  -6.0 4.92e+03    -  3.52e-02 4.71e-02h  1
iter    objective    inf_pr   inf_du lg(mu)  ||d||  lg(rg) alpha_du alpha_pr  ls
  40 -5.2538138e+00 1.56e+00 1.82e+03  -6.0 5.34e+01  -5.7 5.29e-02 2.36e-01h  1
  41 -5.2606280e+00 1.55e+00 1.80e+03  -6.0 4.18e+03    -  1.19e-04 4.54e-02h  1
  42 -5.2658200e+00 1.52e+00 1.60e+03  -6.0 3.69e+03    -  1.43e-01 3.98e-02h  1
  43 -5.2758812e+00 2.16e+00 1.42e+03  -6.0 2.91e+03    -  1.28e-01 9.73e-02h  1
  44 -5.2832746e+00 1.69e+00 1.21e+03  -6.0 2.21e+03    -  3.37e-01 9.75e-02h  1
  45 -5.3025345e+00 3.92e+00 1.17e+03  -6.0 1.79e+03    -  2.59e-01 3.31e-01h  1
  46 -5.3045300e+00 1.11e+00 5.27e+03  -6.0 2.14e+02  -6.2 9.34e-05 1.00e+00h  1
  47 -5.3249535e+00 1.33e+01 3.02e+03  -6.0 1.92e+03    -  6.24e-01 4.46e-01h  1
  48 -5.3208511e+00 2.79e-01 3.17e+04  -6.0 5.53e+01  -5.7 1.97e-03 1.00e+00h  1
  49 -5.3211961e+00 8.89e-03 3.60e+04  -6.0 1.01e+01  -5.3 7.89e-02 1.00e+00h  1
iter    objective    inf_pr   inf_du lg(mu)  ||d||  lg(rg) alpha_du alpha_pr  ls
  50 -5.3212505e+00 7.92e-03 3.00e+04  -6.0 1.06e+01  -5.8 1.00e+00 1.68e-01h  1
  51 -5.3232033e+00 2.63e-02 4.28e+01  -6.0 2.90e+01  -6.3 1.00e+00 1.00e+00f  1
  52 -5.3239187e+00 7.32e-03 5.70e+00  -6.0 1.30e+01  -5.8 1.00e+00 8.55e-01h  1
  53 -5.3275188e+00 1.10e-01 3.00e+01  -6.0 5.19e+01  -6.3 1.00e+00 1.00e+00h  1
  54 -5.3294272e+00 9.26e-03 1.97e+00  -6.0 1.52e+01  -5.9 1.00e+00 1.00e+00h  1
  55 -5.3362004e+00 1.54e-01 7.10e+01  -6.0 7.72e+01  -6.4 4.71e-01 1.00e+00h  1
  56 -5.3388947e+00 1.21e-02 6.80e+00  -6.0 3.05e+01  -5.9 1.00e+00 1.00e+00h  1
  57 -5.3539874e+00 3.69e-01 2.12e+02  -6.0 1.48e+02  -6.4 1.22e-01 1.00e+00h  1
  58 -5.3646590e+00 4.37e-02 2.12e+01  -6.0 4.98e+01  -6.0 4.91e-01 1.00e+00h  1
  59 -5.3688519e+00 5.63e-02 1.45e+01  -6.0 2.23e+02  -6.5 1.68e-01 9.81e-02h  1
iter    objective    inf_pr   inf_du lg(mu)  ||d||  lg(rg) alpha_du alpha_pr  ls
  60 -5.3814562e+00 1.43e-01 2.87e+01  -6.0 5.81e+01  -6.0 1.00e+00 1.00e+00f  1
  61 -5.4025324e+00 4.53e-01 8.26e+01  -6.0 2.22e+02  -6.5 2.78e-01 3.81e-01h  1
  62 -5.4386309e+00 1.28e+00 3.53e+02  -6.0 4.24e+03  -7.0 2.91e-02 5.40e-02h  1
  63 -5.5318450e+00 3.32e+00 5.18e+02  -6.0 2.35e+03  -7.5 1.36e-01 1.35e-01h  1
  64 -5.5359388e+00 3.30e+00 5.15e+02  -6.0 3.74e+03    -  3.37e-01 6.38e-03h  1
  65 -5.5841423e+00 3.50e+01 4.32e+02  -6.0 3.64e+03    -  1.04e-01 3.61e-01h  1
  66 -5.6000920e+00 3.17e+01 4.59e+05  -6.0 5.66e+02  -7.1 1.43e-02 9.33e-02h  1
  67 -5.6233435e+00 3.04e+01 4.31e+05  -6.0 2.89e+03  -7.5 2.96e-02 4.33e-02h  1
  68 -5.6453776e+00 2.98e+01 4.55e+05  -6.0 9.09e+03  -8.0 6.13e-02 1.81e-02f  1
  69 -5.6669884e+00 2.76e+01 4.21e+05  -6.0 1.03e+03  -7.6 7.11e-02 7.42e-02h  1
iter    objective    inf_pr   inf_du lg(mu)  ||d||  lg(rg) alpha_du alpha_pr  ls
  70 -5.6669889e+00 2.76e+01 4.21e+05  -6.0 1.96e+03  -8.1 1.68e-06 1.02e-06h  2
  71 -5.6669887e+00 2.76e+01 4.21e+05  -6.0 3.14e+00  -0.2 1.86e-03 1.42e-05h  1
  72 -5.6668074e+00 2.73e+01 4.15e+05  -6.0 3.14e+00  -0.7 3.58e-03 1.29e-02h  1
  73 -5.6661758e+00 2.61e+01 3.95e+05  -6.0 3.10e+00  -1.2 7.97e-03 4.31e-02h  1
  74 -5.6653362e+00 2.46e+01 3.71e+05  -6.0 2.97e+00  -1.6 1.98e-02 5.80e-02h  1
  75 -5.6600120e+00 1.52e+01 2.20e+05  -6.0 2.80e+00  -2.1 1.20e-01 3.83e-01h  1
  76 -5.6524126e+00 7.88e-03 5.57e+03  -6.0 1.72e+00  -2.6 5.28e-01 1.00e+00h  1
  77 -5.6527276e+00 7.17e-03 4.79e+03  -6.0 1.23e+00  -3.1 5.80e-01 8.69e-02h  1
  78 -5.6536384e+00 4.41e-03 3.35e+03  -6.0 1.09e+00  -3.6 7.52e-01 2.76e-01h  1
  79 -5.6536341e+00 4.09e-03 3.11e+03  -6.0 6.12e-02  -1.3 1.15e-01 7.26e-02h  1
iter    objective    inf_pr   inf_du lg(mu)  ||d||  lg(rg) alpha_du alpha_pr  ls
  80 -5.6536416e+00 3.29e-04 2.46e+02  -6.0 1.63e-02  -1.8 1.00e+00 9.20e-01f  1
  81 -5.6536433e+00 2.76e-04 2.06e+02  -6.0 1.24e-02  -1.4 2.01e-01 1.62e-01h  1
  82 -5.6536734e+00 1.97e-05 1.06e+01  -6.0 1.83e-02  -1.8 1.00e+00 1.00e+00f  1
  83 -5.6536812e+00 9.31e-06 2.69e+01  -6.0 8.86e-03  -1.4 6.83e-01 5.77e-01h  1
  84 -5.6537173e+00 2.54e-05 6.38e-01  -6.0 1.99e-02  -1.9 1.00e+00 1.00e+00f  1
  85 -5.6578870e+00 7.89e-02 2.51e+00  -6.0 1.95e+04    -  9.47e-04 3.52e-03f  1
  86 -5.6578093e+00 4.17e-02 2.38e+01  -6.0 3.35e-01  -2.4 8.76e-01 4.72e-01h  1
  87 -5.6578162e+00 4.07e-02 4.00e+01  -6.0 1.83e-01  -2.9 1.00e+00 2.41e-02h  1
  88 -5.6584900e+00 1.75e-02 1.09e+00  -6.0 5.46e-01  -3.3 1.00e+00 1.00e+00f  1
  89 -5.6586052e+00 1.69e-02 4.34e+01  -6.0 1.48e+00  -3.8 1.00e+00 7.27e-02h  1
iter    objective    inf_pr   inf_du lg(mu)  ||d||  lg(rg) alpha_du alpha_pr  ls
  90 -5.6588308e+00 1.08e-02 7.07e+01  -6.0 9.63e-01  -4.3 9.78e-01 3.58e-01h  1
  91 -5.6667886e+00 9.97e-02 6.69e+01  -6.0 7.66e+03    -  1.80e-02 9.51e-03f  1
  92 -5.6694753e+00 1.03e-01 8.59e+02  -6.0 4.76e+03    -  1.99e-03 3.67e-03f  1
  93 -5.6694720e+00 9.96e-02 8.29e+02  -6.0 8.34e-02  -0.2 2.72e-01 3.47e-02h  1
  94 -5.6694742e+00 9.96e-02 8.29e+02  -6.0 1.07e+04    -  1.17e-01 1.78e-06h  2
  95 -5.7107376e+00 2.73e-01 7.64e+02  -6.0 2.79e+03    -  4.15e-02 8.01e-02h  1
  96 -5.7106787e+00 2.64e-01 7.39e+02  -6.0 1.04e-01  -0.7 2.88e-03 3.29e-02h  1
  97 -5.7105275e+00 2.41e-01 6.23e+02  -6.0 2.51e-01  -1.2 8.99e-05 8.63e-02h  1
  98 -5.7093622e+00 5.40e-02 1.54e+02  -6.0 1.06e-01  -1.7 2.50e-01 7.76e-01h  1
  99 -5.7093655e+00 5.06e-02 1.68e+02  -6.0 1.14e-01  -2.2 9.66e-01 6.31e-02h  1
iter    objective    inf_pr   inf_du lg(mu)  ||d||  lg(rg) alpha_du alpha_pr  ls
 100 -5.7093810e+00 5.05e-02 1.89e+02  -6.0 3.41e+01  -2.6 1.36e-04 2.24e-03h  1
 101 -5.7094719e+00 4.38e-02 1.68e+02  -6.0 3.99e-01  -3.1 6.66e-01 1.32e-01h  1
 102 -5.7094705e+00 4.36e-02 1.68e+02  -6.0 1.76e-02  -0.9 1.66e-01 5.19e-03h  1
 103 -5.7094599e+00 4.27e-02 1.67e+02  -6.0 2.94e-01  -1.4 3.61e-01 2.01e-02h  1
 104 -5.7093600e+00 2.36e-02 1.05e+02  -6.0 3.27e-02  -1.8 5.91e-01 4.48e-01h  1
 105 -5.7093599e+00 2.35e-02 9.81e+01  -6.0 5.05e-02  -2.3 1.00e+00 1.72e-03h  1
 106 -5.7093760e+00 1.53e-02 5.01e+01  -6.0 1.41e-01  -2.8 5.27e-01 3.51e-01h  1
 107 -5.7093732e+00 8.81e-03 4.90e+01  -6.0 1.33e-01  -3.3 1.00e+00 4.23e-01h  1
 108 -5.7291343e+00 3.38e-02 4.29e+01  -6.0 2.32e+03    -  2.09e-01 4.99e-02f  1
 109 -5.8909319e+00 6.62e+00 2.70e+02  -6.0 2.23e+03    -  3.09e-01 5.28e-01h  1
iter    objective    inf_pr   inf_du lg(mu)  ||d||  lg(rg) alpha_du alpha_pr  ls
 110 -5.8957273e+00 6.54e+00 2.66e+02  -6.0 7.35e+03    -  2.26e-02 1.28e-02h  1
 111 -5.9013841e+00 6.33e+00 2.57e+02  -6.0 2.34e+03    -  5.61e-02 3.40e-02h  1
 112 -5.9094775e+00 6.05e+00 8.92e+02  -6.0 2.29e+03    -  1.05e-01 4.88e-02h  1
 113 -5.9094689e+00 6.05e+00 1.92e+03  -6.0 1.28e+02  -3.7 1.35e-04 2.10e-04h  1
 114 -5.9094481e+00 6.05e+00 1.92e+03  -6.0 2.01e+05    -  4.83e-06 3.51e-06f  9
 115 -5.9054492e+00 5.18e+00 1.73e+03  -6.0 1.27e+01  -4.2 5.65e-03 1.44e-01h  1
 116 -5.8929755e+00 2.80e+00 9.45e+02  -6.0 3.72e+00  -4.7 1.00e+00 4.57e-01h  1
 117 -5.8790421e+00 1.54e-02 9.14e+00  -6.0 4.51e+00  -5.2 6.37e-01 1.00e+00h  1
 118 -5.8800715e+00 7.59e-03 4.29e+00  -6.0 1.09e+01  -5.6 1.00e+00 5.00e-01h  1
 119 -5.8825204e+00 4.76e-03 3.19e+00  -6.0 2.70e+01  -6.1 4.66e-01 6.61e-01h  1
iter    objective    inf_pr   inf_du lg(mu)  ||d||  lg(rg) alpha_du alpha_pr  ls
 120 -5.8900312e+00 2.43e-02 1.29e+01  -6.0 8.01e+01  -6.6 1.00e+00 6.55e-01f  1
 121 -5.9070293e+00 2.78e-01 1.20e+01  -6.0 2.01e+02  -7.1 3.18e-01 5.74e-01h  1
 122 -5.9222457e+00 1.33e+00 9.29e+00  -6.0 1.24e+03  -7.6 1.65e-01 1.56e-01h  1
 123 -5.9289285e+00 1.42e+00 6.08e+02  -6.0 6.39e+03    -  3.05e-02 2.00e-02h  1
 124 -5.9332661e+00 1.34e+00 1.67e+04  -6.0 3.89e+03    -  1.62e-01 1.59e-02h  1
 125 -5.9649809e+00 1.32e+00 1.19e+04  -6.0 3.59e+03    -  9.15e-02 1.30e-01h  1
 126 -5.9974525e+00 1.35e+00 5.02e+04  -6.0 2.17e+03    -  6.40e-01 1.85e-01h  1
 127 -6.0516395e+00 1.56e+00 7.46e+04  -6.0 1.95e+03    -  1.00e+00 4.03e-01h  1
 128 -6.0690750e+00 1.41e+00 1.20e+05  -6.0 1.43e+03    -  7.53e-01 2.52e-01h  1
 129 -6.0908723e+00 3.46e+00 8.08e+04  -6.0 1.21e+03    -  5.58e-01 4.57e-01h  1
iter    objective    inf_pr   inf_du lg(mu)  ||d||  lg(rg) alpha_du alpha_pr  ls
 130 -6.0909147e+00 3.45e+00 8.15e+04  -6.0 1.42e+05    -  1.72e-03 6.20e-04h  1
 131 -6.1084665e+00 2.72e+01 3.01e+05  -6.0 1.63e+03    -  1.09e-02 7.49e-01h  1
 132 -6.1079388e+00 2.64e+01 4.59e+05  -6.0 3.11e+03    -  2.19e-02 1.34e-01h  2
 133 -6.1116439e+00 2.19e+01 2.76e+05  -6.0 1.11e+03    -  2.30e-01 1.86e-01h  1
 134r-6.1116439e+00 2.19e+01 1.00e+03   1.2 0.00e+00  -4.4 0.00e+00 1.03e-07R  2
 135r-6.1301097e+00 2.19e+01 1.00e+03   1.2 7.32e+04    -  1.54e-07 2.10e-07f  1
 136 -6.1296574e+00 2.16e+01 1.09e+04  -6.0 1.64e+02    -  1.33e-06 1.45e-02h  1
 137 -6.1284051e+00 2.07e+01 1.04e+04  -6.0 1.14e+02    -  2.50e-02 4.26e-02h  1
 138 -6.1255555e+00 1.86e+01 9.37e+03  -6.0 3.82e+01    -  6.47e-02 1.01e-01h  1
 139 -6.1187238e+00 1.36e+01 6.86e+03  -6.0 8.25e+00    -  1.83e-01 2.68e-01h  1
iter    objective    inf_pr   inf_du lg(mu)  ||d||  lg(rg) alpha_du alpha_pr  ls
 140 -6.1107244e+00 7.81e+00 3.94e+03  -6.0 6.01e+00    -  5.22e-01 4.25e-01h  1
 141 -6.1040808e+00 3.05e+00 1.54e+03  -6.0 3.73e+00    -  8.06e-01 6.09e-01h  1
 142 -6.1000308e+00 1.42e-04 7.41e+00  -6.0 1.40e+00    -  9.12e-01 1.00e+00h  1
 143 -6.1003152e+00 1.00e-02 1.27e+02  -6.0 9.27e+00    -  7.70e-01 7.42e-02h  1
 144 -6.1056762e+00 5.22e+00 1.59e+02  -6.0 8.01e+00  -4.9 6.17e-02 1.00e+00f  1
 145 -6.1071600e+00 5.28e+00 1.46e+02  -6.0 1.63e+02    -  5.60e-02 2.27e-02h  1
 146 -6.1150315e+00 2.59e+00 7.59e+02  -6.0 3.03e+01    -  9.16e-01 1.00e+00h  1
 147 -6.1192080e+00 2.78e+00 1.01e+03  -6.0 4.56e+01  -5.4 6.57e-02 5.12e-02h  1
 148 -6.1253075e+00 2.25e+00 1.37e+04  -6.0 3.35e+02    -  4.73e-01 2.32e-01h  1
 149 -6.1265305e+00 1.72e+00 1.52e+04  -6.0 1.76e+01  -4.9 5.43e-01 2.36e-01h  1
iter    objective    inf_pr   inf_du lg(mu)  ||d||  lg(rg) alpha_du alpha_pr  ls
 150 -6.1321964e+00 9.99e-01 3.30e+04  -6.0 3.61e+02    -  9.45e-01 4.19e-01h  1
 151 -6.1342520e+00 8.21e-01 1.76e+04  -6.0 6.30e+02    -  8.87e-03 1.77e-01h  1
 152 -6.1342394e+00 8.20e-01 1.70e+04  -6.0 4.13e+03    -  2.01e-06 1.43e-03h  1
 153 -6.1342704e+00 8.20e-01 1.76e+04  -6.0 8.66e+04    -  1.03e-08 9.87e-05f  1
 154 -6.1342586e+00 8.20e-01 1.73e+04  -6.0 6.02e+04    -  9.22e-09 5.04e-05f  2
 155 -6.1343357e+00 8.06e-01 2.65e+04  -6.0 6.15e+00  -5.4 5.90e-01 1.76e-02h  1
 156 -6.1345721e+00 7.82e-01 8.06e+04  -6.0 4.73e+02    -  5.85e-01 2.98e-02h  1
 157 -6.1402450e+00 3.56e+00 7.65e+03  -6.0 6.19e+02    -  4.18e-01 7.09e-01h  1
 158 -6.1403077e+00 3.51e+00 1.17e+05  -6.0 4.76e+02    -  3.83e-01 1.38e-02h  1
 159 -6.1408448e+00 1.05e+01 7.65e+04  -6.0 1.66e+03    -  1.39e-01 4.84e-01h  1
iter    objective    inf_pr   inf_du lg(mu)  ||d||  lg(rg) alpha_du alpha_pr  ls
 160r-6.1408448e+00 1.05e+01 1.00e+03   0.9 0.00e+00    -  0.00e+00 3.25e-07R  2
 161r-6.1570688e+00 1.05e+01 1.00e+03   0.9 3.69e+04    -  1.87e-07 2.10e-07f  1
 162 -6.1570630e+00 1.05e+01 2.19e+02  -6.0 3.88e+01    -  2.20e-06 4.81e-04h  1
 163 -6.1549179e+00 9.18e+00 1.77e+02  -6.0 4.14e+00    -  1.33e-02 1.27e-01h  1
 164 -6.1483094e+00 5.08e+00 1.54e+02  -6.0 3.61e+00    -  6.17e-02 4.47e-01h  1
 165 -6.1469052e+00 4.21e+00 9.26e+01  -6.0 1.99e+00    -  5.34e-01 1.71e-01h  1
 166 -6.1418116e+00 1.02e+00 2.26e+01  -6.0 1.69e+00    -  7.30e-01 7.58e-01h  1
 167 -6.1416474e+00 8.71e-01 8.63e+01  -6.0 5.24e-01    -  9.13e-01 1.45e-01h  1
 168 -6.1414573e+00 5.64e-01 5.05e+01  -6.0 1.71e+00    -  9.68e-01 3.52e-01h  1
 169 -6.1412155e+00 6.21e-03 2.39e+01  -6.0 1.99e+01    -  9.56e-01 1.00e+00h  1
iter    objective    inf_pr   inf_du lg(mu)  ||d||  lg(rg) alpha_du alpha_pr  ls
 170 -6.1410581e+00 2.26e-05 1.27e-02  -6.0 9.56e+00  -5.9 1.00e+00 1.00e+00h  1
 171 -6.1415222e+00 1.68e-04 4.09e-02  -6.0 2.74e+01  -6.4 1.00e+00 1.00e+00h  1
 172 -6.1428657e+00 9.79e-03 3.96e-01  -6.0 8.01e+01  -6.9 1.00e+00 1.00e+00h  1
 173 -6.1497832e+00 1.21e+00 3.17e+01  -6.0 3.49e+02  -7.3 3.88e-01 1.00e+00h  1
 174 -6.1949146e+00 1.50e+01 2.06e+02  -6.0 1.54e+03  -7.8 2.11e-01 8.95e-01h  1
 175 -6.2073269e+00 7.83e+00 4.16e+02  -6.0 2.66e+03    -  2.62e-01 1.00e+00h  1
 176 -6.2017918e+00 1.97e+00 2.75e+01  -6.0 4.73e+02    -  1.00e+00 1.00e+00h  1
 177 -6.2013093e+00 2.68e-02 6.73e+00  -6.0 3.12e+02    -  1.00e+00 1.00e+00h  1
 178 -6.2007735e+00 5.66e-05 4.01e-04  -6.0 2.04e+00    -  1.00e+00 1.00e+00h  1
 179 -6.2007734e+00 2.97e-07 1.39e-07  -6.0 1.33e-01    -  1.00e+00 1.00e+00h  1
iter    objective    inf_pr   inf_du lg(mu)  ||d||  lg(rg) alpha_du alpha_pr  ls
 180 -6.2008093e+00 2.64e-02 1.70e+02  -7.5 1.07e+02    -  9.46e-01 3.60e-01h  1
 181 -6.2008528e+00 7.64e-02 2.01e+01  -7.5 7.19e+01    -  1.00e+00 8.91e-01h  1
 182 -6.2008499e+00 3.66e-04 2.46e-02  -7.5 4.44e+00    -  1.00e+00 1.00e+00h  1
 183 -6.2008499e+00 1.25e-08 1.45e-05  -7.5 2.60e-02    -  1.00e+00 1.00e+00h  1
 184 -6.2008499e+00 2.85e-10 2.71e-08  -7.5 2.23e-04    -  1.00e+00 1.00e+00h  1
 185 -6.2008513e+00 1.42e-04 8.75e-01  -9.0 3.40e+00    -  9.22e-01 8.27e-01h  1
 186 -6.2008516e+00 6.24e-06 1.77e-04  -9.0 5.89e-01    -  1.00e+00 1.00e+00f  1
 187 -6.2008516e+00 2.85e-10 4.18e-09  -9.0 1.92e-04    -  1.00e+00 1.00e+00h  1

Number of Iterations....: 187

                                   (scaled)                 (unscaled)
Objective...............:  -4.8444153319573555e+00   -6.2008516249054146e+00
Dual infeasibility......:   4.1826517627317332e-09    5.3537942562966189e-09
Constraint violation....:   2.8490304668400690e-10    2.8490304668400690e-10
Complementarity.........:   1.5020636570495177e-09    1.9226414810233828e-09
Overall NLP error.......:   4.1826517627317332e-09    5.3537942562966189e-09


Number of objective function evaluations             = 354
Number of objective gradient evaluations             = 188
Number of equality constraint evaluations            = 354
Number of inequality constraint evaluations          = 354
Number of equality constraint Jacobian evaluations   = 190
Number of inequality constraint Jacobian evaluations = 190
Number of Lagrangian Hessian evaluations             = 187
Total CPU secs in IPOPT (w/o function evaluations)   =    444.712
Total CPU secs in NLP function evaluations           =      8.272

EXIT: Optimal Solution Found.
